Minimize
  obj: x0 + x1 + x2 + x3

Subject To
  c0: x1 + x2 + x3 = 27
  c1: x2 = 11
  c2: x1 + x2 = 25
  c3: x0 + x1 + x2 = 42
  c4: x0 + x2 + x3 = 30
  c5: x2 = 11

Bounds
  x0 >= 0
  x1 >= 0
  x2 >= 0
  x3 >= 0

Generals
  x0 x1 x2 x3

End
